Zr2 O4
1.0
   3.6001684599999999    0.0000000000000000    0.0000000000000002
  -0.0000000000000002    3.6001684599999999    0.0000000000000002
   0.0000000000000000    0.0000000000000000    5.2251560399999999
Zr O
2 4
direct
   0.0000000000000000    0.0000000000000000    0.0000000000000000 Zr4+
   0.5000000000000000    0.5000000000000000    0.5000000000000000 Zr4+
   0.0000000000000000    0.5000000000000000    0.3017749100000000 O2-
   0.0000000000000000    0.5000000000000000    0.8017749100000000 O2-
   0.5000000000000000    0.0000000000000000    0.6982250900000000 O2-
   0.5000000000000000    0.0000000000000000    0.1982250900000000 O2-
