Zr2 O4
1.0
        7.2003369331         0.0000000000         0.0000000000
        0.0000000000         7.2003369331         0.0000000000
        0.0000000000         0.0000000000        10.4503116608
   Zr    O
   16   32
Cartesian
     0.000000000         0.000000000         0.000000000
     0.000000000         0.000000000         5.225155830
     0.000000000         3.600168467         0.000000000
     0.000000000         3.600168467         5.225155830
     3.600168467         0.000000000         0.000000000
     3.600168467         0.000000000         5.225155830
     3.600168467         3.600168467         0.000000000
     3.600168467         3.600168467         5.225155830
     1.800084233         1.800084233         2.612577915
     1.800084233         1.800084233         7.837733746
     1.800084233         5.400252700         2.612577915
     1.800084233         5.400252700         7.837733746
     5.400252700         1.800084233         2.612577915
     5.400252700         1.800084233         7.837733746
     5.400252700         5.400252700         2.612577915
     5.400252700         5.400252700         7.837733746
     0.000000000         1.800084233         1.576820978
     0.000000000         1.800084233         6.801977119
     0.000000000         5.400252700         1.576820978
     0.000000000         5.400252700         6.801977119
     3.600168467         1.800084233         1.576820978
     3.600168467         1.800084233         6.801977119
     3.600168467         5.400252700         1.576820978
     3.600168467         5.400252700         6.801977119
     0.000000000         1.800084233         4.189398893
     0.000000000         1.800084233         9.414555035
     0.000000000         5.400252700         4.189398893
     0.000000000         5.400252700         9.414555035
     3.600168467         1.800084233         4.189398893
     3.600168467         1.800084233         9.414555035
     3.600168467         5.400252700         4.189398893
     3.600168467         5.400252700         9.414555035
     1.800084233         0.000000000         3.648334853
     1.800084233         0.000000000         8.873490372
     1.800084233         3.600168467         3.648334853
     1.800084233         3.600168467         8.873490372
     5.400252700         0.000000000         3.648334853
     5.400252700         0.000000000         8.873490372
     5.400252700         3.600168467         3.648334853
     5.400252700         3.600168467         8.873490372
     1.800084233         0.000000000         1.035757015
     1.800084233         0.000000000         6.260913079
     1.800084233         3.600168467         1.035757015
     1.800084233         3.600168467         6.260913079
     5.400252700         0.000000000         1.035757015
     5.400252700         0.000000000         6.260913079
     5.400252700         3.600168467         1.035757015
     5.400252700         3.600168467         6.260913079
